\ LP format - for model browsing. Use MPS format to capture full model detail.
Maximize
 
Subject To
 oneVisitCon0: lambda_01 = 1
 oneVisitCon1: lambda_12 = 1
 visitedPickupCon0: <= 1
 visitedPickupCon1: <= 1
 visitedPickupCon2: <= 1
 visitedPickupCon3: <= 1
 visitedPickupCon4: <= 1
Bounds
End
